\* NBA *\
Maximize
OBJ: 68.001 x0 + 34.751 x1 + 13.001 x10 + 15.501 x100 + 15.001 x101
 + 21.751 x102 + 0.001 x103 + 16.251 x104 + 0.001 x105 + 2.251 x106
 + 28.001 x107 + 11.251 x108 + 3.251 x109 + 2.001 x11 + 17.001 x110
 + 22.501 x111 + 0.001 x112 + 0.001 x113 + 0.001 x114 + 26.751 x115
 + 0.001 x116 + 14.001 x117 + 0.001 x118 - 0.499 x119 + 10.251 x12
 + 3.501 x120 - 0.499 x121 + 0.001 x122 + 3.251 x123 + 11.251 x124
 + 0.001 x125 + 0.001 x126 + 0.001 x127 + 34.251 x128 + 22.251 x129
 + 16.001 x13 + 4.251 x130 + 35.751 x131 + 24.251 x132 + 14.001 x133
 + 20.251 x134 + 9.251 x135 + 28.251 x136 + 11.251 x137 + 0.001 x138
 + 9.001 x139 + 24.501 x14 + 31.501 x140 + 0.001 x141 + 37.751 x142
 + 22.251 x143 + 41.001 x144 + 0.001 x145 + 36.501 x146 + 27.501 x147
 + 21.251 x148 + 23.501 x149 + 14.751 x15 + 14.001 x150 + 18.501 x151
 + 19.501 x152 + 0.001 x153 + 0.001 x154 + 12.251 x155 + 22.751 x156
 + 10.501 x157 + 4.751 x158 + 0.001 x159 + 2.001 x16 + 0.001 x160 + 3.001 x161
 + 1.501 x162 + 0.001 x163 + 0.001 x164 + 0.001 x165 + 0.001 x166 + 1.501 x167
 + 0.001 x168 + 2.501 x169 + 8.501 x17 + 31.501 x170 + 11.751 x171
 + 20.251 x172 + 29.001 x173 + 7.501 x174 + 12.251 x175 + 20.501 x176
 + 17.001 x177 + 37.251 x178 + 13.751 x179 + 0.001 x18 + 13.751 x180
 + 21.251 x181 + 23.001 x182 + 18.501 x183 + 2.001 x184 + 22.501 x185
 + 24.501 x186 + 0.001 x187 + 15.001 x188 + 29.251 x189 + 0.001 x19
 + 14.251 x190 + 25.501 x191 + 22.001 x192 + 19.751 x193 + 21.251 x194
 + 0.001 x195 + 15.501 x196 + 27.001 x197 + 37.751 x198 + 0.001 x199
 + 25.501 x2 + 53.501 x20 + 11.001 x200 - 0.499 x201 + 1.251 x202 + 0.001 x203
 + 0.001 x204 + 0.001 x205 + 0.001 x206 + 6.251 x207 + 0.001 x208 + 52.001 x21
 + 54.251 x22 + 47.251 x23 + 33.751 x24 + 25.001 x25 + 49.251 x26 + 25.501 x27
 + 41.751 x28 + 35.501 x29 + 30.501 x3 + 28.251 x30 + 22.751 x31 + 0.001 x32
 + 29.751 x33 + 30.251 x34 + 5.751 x35 + 29.001 x36 + 0.001 x37 + 11.501 x38
 + 24.001 x39 + 17.001 x4 + 0.001 x40 + 0.001 x41 + 21.501 x42 + 29.001 x43
 + 4.501 x44 + 0.001 x45 + 6.251 x46 + 0.001 x47 + 2.251 x48 + 1.501 x49
 + 24.501 x5 + 0.001 x50 + 2.001 x51 + 1.501 x52 + 0.001 x53 + 10.751 x54
 + 0.001 x55 + 0.001 x56 + 0.001 x57 + 0.001 x58 + 51.501 x59 + 12.501 x6
 + 35.751 x60 + 0.001 x61 + 18.751 x62 + 31.001 x63 + 23.751 x64 + 23.501 x65
 + 14.001 x66 + 13.001 x67 + 18.001 x68 + 4.251 x69 + 0.001 x7 + 14.501 x70
 + 0.001 x71 + 0.001 x72 + 0.001 x73 + 0.001 x74 + 0.001 x75 + 7.251 x76
 + 22.001 x77 + 0.001 x78 + 13.251 x79 + 21.251 x8 + 7.251 x80 + 8.251 x81
 + 6.501 x82 + 0.001 x83 + 0.001 x84 + 0.001 x85 + 0.001 x86 + 0.001 x87
 + 0.001 x88 + 10.501 x89 + 67.001 x9 + 44.501 x90 + 34.251 x91 + 37.001 x92
 + 24.501 x93 + 49.751 x94 + 42.751 x95 + 47.251 x96 + 18.501 x97 + 29.751 x98
 + 15.001 x99
Subject To
_C1: 11400 x0 + 7300 x1 + 6300 x10 + 4400 x100 + 4300 x101 + 4300 x102
 + 4000 x103 + 3900 x104 + 3800 x105 + 3600 x106 + 3500 x107 + 3400 x108
 + 3300 x109 + 4900 x11 + 3200 x110 + 3000 x111 + 3000 x112 + 3000 x113
 + 3000 x114 + 3000 x115 + 3000 x116 + 3000 x117 + 3000 x118 + 3000 x119
 + 4800 x12 + 3000 x120 + 3000 x121 + 3000 x122 + 3000 x123 + 3000 x124
 + 3000 x125 + 3000 x126 + 3000 x127 + 8300 x128 + 6900 x129 + 4000 x13
 + 6300 x130 + 6200 x131 + 6100 x132 + 5900 x133 + 5400 x134 + 4100 x135
 + 4100 x136 + 3900 x137 + 3700 x138 + 3700 x139 + 3900 x14 + 3500 x140
 + 3000 x141 + 7700 x142 + 7400 x143 + 6700 x144 + 5600 x145 + 5600 x146
 + 5400 x147 + 5400 x148 + 4400 x149 + 3600 x15 + 4300 x150 + 4300 x151
 + 4300 x152 + 4000 x153 + 4000 x154 + 3800 x155 + 3500 x156 + 3000 x157
 + 3000 x158 + 3000 x159 + 3000 x16 + 3000 x160 + 3000 x161 + 3000 x162
 + 3000 x163 + 3000 x164 + 3000 x165 + 3000 x166 + 3000 x167 + 3000 x168
 + 3000 x169 + 3000 x17 + 6600 x170 + 6400 x171 + 4800 x172 + 4600 x173
 + 4400 x174 + 4300 x175 + 3900 x176 + 3800 x177 + 3700 x178 + 3600 x179
 + 3000 x18 + 3400 x180 + 3300 x181 + 3200 x182 + 3200 x183 + 3000 x184
 + 5700 x185 + 5400 x186 + 4900 x187 + 4900 x188 + 4400 x189 + 3000 x19
 + 4400 x190 + 4200 x191 + 3700 x192 + 3600 x193 + 3500 x194 + 3200 x195
 + 3200 x196 + 3100 x197 + 3100 x198 + 3000 x199 + 5400 x2 + 9800 x20
 + 3000 x200 + 3000 x201 + 3000 x202 + 3000 x203 + 3000 x204 + 3000 x205
 + 3000 x206 + 3000 x207 + 3000 x208 + 9000 x21 + 8900 x22 + 8600 x23
 + 8100 x24 + 7500 x25 + 7200 x26 + 6300 x27 + 6200 x28 + 5700 x29 + 4100 x3
 + 5500 x30 + 5500 x31 + 5000 x32 + 4900 x33 + 4900 x34 + 4900 x35 + 4400 x36
 + 3700 x37 + 3700 x38 + 3600 x39 + 4000 x4 + 3500 x40 + 3500 x41 + 3400 x42
 + 3300 x43 + 3000 x44 + 3000 x45 + 3000 x46 + 3000 x47 + 3000 x48 + 3000 x49
 + 3500 x5 + 3000 x50 + 3000 x51 + 3000 x52 + 3000 x53 + 3000 x54 + 3000 x55
 + 3000 x56 + 3000 x57 + 3000 x58 + 8500 x59 + 3400 x6 + 5600 x60 + 5000 x61
 + 4900 x62 + 4700 x63 + 4500 x64 + 4200 x65 + 4000 x66 + 4000 x67 + 4000 x68
 + 3200 x69 + 3000 x7 + 3200 x70 + 3000 x71 + 3000 x72 + 3000 x73 + 3000 x74
 + 3000 x75 + 3000 x76 + 3000 x77 + 3000 x78 + 3000 x79 + 3000 x8 + 3000 x80
 + 3000 x81 + 3000 x82 + 3000 x83 + 3000 x84 + 3000 x85 + 3000 x86 + 3000 x87
 + 3000 x88 + 3000 x89 + 10900 x9 + 8400 x90 + 6600 x91 + 6500 x92 + 6000 x93
 + 5800 x94 + 5700 x95 + 5500 x96 + 5300 x97 + 5100 x98 + 4600 x99 <= 50000
_C10: x10 + x11 + x12 + x128 + x129 + x13 + x130 + x131 + x132 + x133 + x134
 + x135 + x136 + x137 + x138 + x139 + x14 + x140 + x141 + x15 + x16 + x17
 + x18 + x19 + x59 + x60 + x61 + x62 + x63 + x64 + x65 + x66 + x67 + x68 + x69
 + x70 + x71 + x72 + x73 + x74 + x75 + x76 + x77 + x78 + x79 + x80 + x81 + x82
 + x83 + x84 + x85 + x86 + x87 + x88 + x89 + x9 >= 1
_C11: x10 + x100 + x101 + x102 + x103 + x104 + x105 + x106 + x107 + x108
 + x109 + x11 + x110 + x111 + x112 + x113 + x114 + x115 + x116 + x117 + x118
 + x119 + x12 + x120 + x121 + x122 + x123 + x124 + x125 + x126 + x127 + x13
 + x14 + x15 + x16 + x17 + x18 + x19 + x9 + x90 + x91 + x92 + x93 + x94 + x95
 + x96 + x97 + x98 + x99 <= 2
_C12: x10 + x100 + x101 + x102 + x103 + x104 + x105 + x106 + x107 + x108
 + x109 + x11 + x110 + x111 + x112 + x113 + x114 + x115 + x116 + x117 + x118
 + x119 + x12 + x120 + x121 + x122 + x123 + x124 + x125 + x126 + x127 + x13
 + x14 + x15 + x16 + x17 + x18 + x19 + x9 + x90 + x91 + x92 + x93 + x94 + x95
 + x96 + x97 + x98 + x99 >= 1
_C13: x0 + x140 + x178 + x198 + x22 + x26 + x94 + x96 <= 4
_C14: x0 + x178 + x197 + x198 + x43 + x59 + x9 + x94 <= 4
_C15: x178 + x198 + x20 + x26 + x28 + x59 + x94 + x95 <= 4
_C16: x144 + x178 + x198 + x26 + x3 + x59 + x9 + x96 <= 4
_C2: x0 + x1 + x10 + x100 + x101 + x102 + x103 + x104 + x105 + x106 + x107
 + x108 + x109 + x11 + x110 + x111 + x112 + x113 + x114 + x115 + x116 + x117
 + x118 + x119 + x12 + x120 + x121 + x122 + x123 + x124 + x125 + x126 + x127
 + x128 + x129 + x13 + x130 + x131 + x132 + x133 + x134 + x135 + x136 + x137
 + x138 + x139 + x14 + x140 + x141 + x142 + x143 + x144 + x145 + x146 + x147
 + x148 + x149 + x15 + x150 + x151 + x152 + x153 + x154 + x155 + x156 + x157
 + x158 + x159 + x16 + x160 + x161 + x162 + x163 + x164 + x165 + x166 + x167
 + x168 + x169 + x17 + x170 + x171 + x172 + x173 + x174 + x175 + x176 + x177
 + x178 + x179 + x18 + x180 + x181 + x182 + x183 + x184 + x185 + x186 + x187
 + x188 + x189 + x19 + x190 + x191 + x192 + x193 + x194 + x195 + x196 + x197
 + x198 + x199 + x2 + x20 + x200 + x201 + x202 + x203 + x204 + x205 + x206
 + x207 + x208 + x21 + x22 + x23 + x24 + x25 + x26 + x27 + x28 + x29 + x3
 + x30 + x31 + x32 + x33 + x34 + x35 + x36 + x37 + x38 + x39 + x4 + x40 + x41
 + x42 + x43 + x44 + x45 + x46 + x47 + x48 + x49 + x5 + x50 + x51 + x52 + x53
 + x54 + x55 + x56 + x57 + x58 + x59 + x6 + x60 + x61 + x62 + x63 + x64 + x65
 + x66 + x67 + x68 + x69 + x7 + x70 + x71 + x72 + x73 + x74 + x75 + x76 + x77
 + x78 + x79 + x8 + x80 + x81 + x82 + x83 + x84 + x85 + x86 + x87 + x88 + x89
 + x9 + x90 + x91 + x92 + x93 + x94 + x95 + x96 + x97 + x98 + x99 = 8
_C3: x0 + x1 + x2 + x20 + x21 + x22 + x23 + x24 + x25 + x26 + x27 + x28 + x29
 + x3 + x30 + x31 + x32 + x33 + x34 + x35 + x36 + x37 + x38 + x39 + x4 + x40
 + x41 + x42 + x43 + x44 + x45 + x46 + x47 + x48 + x49 + x5 + x50 + x51 + x52
 + x53 + x54 + x55 + x56 + x57 + x58 + x6 + x7 + x8 <= 3
_C4: x0 + x1 + x2 + x20 + x21 + x22 + x23 + x24 + x25 + x26 + x27 + x28 + x29
 + x3 + x30 + x31 + x32 + x33 + x34 + x35 + x36 + x37 + x38 + x39 + x4 + x40
 + x41 + x42 + x43 + x44 + x45 + x46 + x47 + x48 + x49 + x5 + x50 + x51 + x52
 + x53 + x54 + x55 + x56 + x57 + x58 + x6 + x7 + x8 >= 1
_C5: x0 + x1 + x142 + x143 + x144 + x145 + x146 + x147 + x148 + x149 + x150
 + x151 + x152 + x153 + x154 + x155 + x156 + x157 + x158 + x159 + x160 + x161
 + x162 + x163 + x164 + x165 + x166 + x167 + x168 + x169 + x170 + x171 + x172
 + x173 + x174 + x175 + x176 + x177 + x178 + x179 + x180 + x181 + x182 + x183
 + x184 + x2 + x3 + x4 + x5 + x6 + x7 + x8 <= 3
_C6: x0 + x1 + x142 + x143 + x144 + x145 + x146 + x147 + x148 + x149 + x150
 + x151 + x152 + x153 + x154 + x155 + x156 + x157 + x158 + x159 + x160 + x161
 + x162 + x163 + x164 + x165 + x166 + x167 + x168 + x169 + x170 + x171 + x172
 + x173 + x174 + x175 + x176 + x177 + x178 + x179 + x180 + x181 + x182 + x183
 + x184 + x2 + x3 + x4 + x5 + x6 + x7 + x8 >= 1
_C7: x128 + x129 + x130 + x131 + x132 + x133 + x134 + x135 + x136 + x137
 + x138 + x139 + x140 + x141 + x170 + x171 + x172 + x173 + x174 + x175 + x176
 + x177 + x178 + x179 + x180 + x181 + x182 + x183 + x184 + x185 + x186 + x187
 + x188 + x189 + x190 + x191 + x192 + x193 + x194 + x195 + x196 + x197 + x198
 + x199 + x200 + x201 + x202 + x203 + x204 + x205 + x206 + x207 + x208 <= 3
_C8: x128 + x129 + x130 + x131 + x132 + x133 + x134 + x135 + x136 + x137
 + x138 + x139 + x140 + x141 + x170 + x171 + x172 + x173 + x174 + x175 + x176
 + x177 + x178 + x179 + x180 + x181 + x182 + x183 + x184 + x185 + x186 + x187
 + x188 + x189 + x190 + x191 + x192 + x193 + x194 + x195 + x196 + x197 + x198
 + x199 + x200 + x201 + x202 + x203 + x204 + x205 + x206 + x207 + x208 >= 1
_C9: x10 + x11 + x12 + x128 + x129 + x13 + x130 + x131 + x132 + x133 + x134
 + x135 + x136 + x137 + x138 + x139 + x14 + x140 + x141 + x15 + x16 + x17
 + x18 + x19 + x59 + x60 + x61 + x62 + x63 + x64 + x65 + x66 + x67 + x68 + x69
 + x70 + x71 + x72 + x73 + x74 + x75 + x76 + x77 + x78 + x79 + x80 + x81 + x82
 + x83 + x84 + x85 + x86 + x87 + x88 + x89 + x9 <= 3
Binaries
x0
x1
x10
x100
x101
x102
x103
x104
x105
x106
x107
x108
x109
x11
x110
x111
x112
x113
x114
x115
x116
x117
x118
x119
x12
x120
x121
x122
x123
x124
x125
x126
x127
x128
x129
x13
x130
x131
x132
x133
x134
x135
x136
x137
x138
x139
x14
x140
x141
x142
x143
x144
x145
x146
x147
x148
x149
x15
x150
x151
x152
x153
x154
x155
x156
x157
x158
x159
x16
x160
x161
x162
x163
x164
x165
x166
x167
x168
x169
x17
x170
x171
x172
x173
x174
x175
x176
x177
x178
x179
x18
x180
x181
x182
x183
x184
x185
x186
x187
x188
x189
x19
x190
x191
x192
x193
x194
x195
x196
x197
x198
x199
x2
x20
x200
x201
x202
x203
x204
x205
x206
x207
x208
x21
x22
x23
x24
x25
x26
x27
x28
x29
x3
x30
x31
x32
x33
x34
x35
x36
x37
x38
x39
x4
x40
x41
x42
x43
x44
x45
x46
x47
x48
x49
x5
x50
x51
x52
x53
x54
x55
x56
x57
x58
x59
x6
x60
x61
x62
x63
x64
x65
x66
x67
x68
x69
x7
x70
x71
x72
x73
x74
x75
x76
x77
x78
x79
x8
x80
x81
x82
x83
x84
x85
x86
x87
x88
x89
x9
x90
x91
x92
x93
x94
x95
x96
x97
x98
x99
End
